SimulationType                MonteCarlo
NumberOfCycles                  40000
NumberOfInitializationCycles    20000
RestartFile                    no
PrintEvery                     2000

Forcefield                    GenericMOFs
UseChargesFromCIFFile         yes
EwaldPrecision                1e-6
RemoveAtomNumberCodeFromLabel yes

ChargeMethod                  Ewald
CutOff                        12.8

Framework                     0 
FrameworkName                 SIFSIX_2_Ni_i
UnitCells                     2 2 2
HeliumVoidFraction             0.29
ExternalTemperature           77.0
ExternalPressure              5000000


Movies                        yes 
WriteMoviesEvery              2000

Component 0 MoleculeName             H2
            MoleculeDefinition       TraPPE	
            FugacityCoefficient      1.0
            TranslationProbability   0.5
            RotationProbability      0.5
            ReinsertionProbability   0.5
            SwapProbability          1.0
            CreateNumberOfMolecules  0


